<?xml version = "1.0" encoding="UTF-8" standalone="yes"?>
<CPLEXSolution version="1.2">
 <header
   problemName=""
   solutionName="incumbent"
   solutionIndex="-1"
   objectiveValue="140"
   solutionTypeValue="3"
   solutionTypeString="primal"
   solutionStatusValue="101"
   solutionStatusString="integer optimal solution"
   solutionMethodString="mip"
   primalFeasible="1"
   dualFeasible="1"
   MIPNodes="0"
   MIPIterations="29"
   writeLevel="1"/>
 <quality
   epInt="1.0000000000000001e-05"
   epRHS="9.9999999999999995e-07"
   maxIntInfeas="0"
   maxPrimalInfeas="0"
   maxX="5"
   maxSlack="4"/>
 <linearConstraints>
  <constraint name="flux" index="0" slack="0"/>
  <constraint name="delta_2" index="1" slack="0"/>
  <constraint name="delta_3" index="2" slack="0"/>
  <constraint name="delta_4" index="3" slack="0"/>
  <constraint name="delta_5" index="4" slack="0"/>
  <constraint name="out_1" index="5" slack="0"/>
  <constraint name="out_2" index="6" slack="0"/>
  <constraint name="out_3" index="7" slack="0"/>
  <constraint name="out_4" index="8" slack="0"/>
  <constraint name="out_5" index="9" slack="0"/>
  <constraint name="in_1" index="10" slack="0"/>
  <constraint name="in_2" index="11" slack="0"/>
  <constraint name="in_3" index="12" slack="0"/>
  <constraint name="in_4" index="13" slack="0"/>
  <constraint name="in_5" index="14" slack="0"/>
  <constraint name="att_0_1" index="15" slack="0"/>
  <constraint name="att_0_2" index="16" slack="0"/>
  <constraint name="att_0_3" index="17" slack="0"/>
  <constraint name="att_0_4" index="18" slack="0"/>
  <constraint name="att_1_0" index="19" slack="0"/>
  <constraint name="att_1_2" index="20" slack="3"/>
  <constraint name="att_1_3" index="21" slack="0"/>
  <constraint name="att_1_4" index="22" slack="0"/>
  <constraint name="att_2_0" index="23" slack="4"/>
  <constraint name="att_2_1" index="24" slack="0"/>
  <constraint name="att_2_3" index="25" slack="0"/>
  <constraint name="att_2_4" index="26" slack="0"/>
  <constraint name="att_3_0" index="27" slack="0"/>
  <constraint name="att_3_1" index="28" slack="2"/>
  <constraint name="att_3_2" index="29" slack="0"/>
  <constraint name="att_3_4" index="30" slack="0"/>
  <constraint name="att_4_0" index="31" slack="0"/>
  <constraint name="att_4_1" index="32" slack="0"/>
  <constraint name="att_4_2" index="33" slack="0"/>
  <constraint name="att_4_3" index="34" slack="1"/>
 </linearConstraints>
 <variables>
  <variable name="x_0,1" index="0" value="-0"/>
  <variable name="x_0,2" index="1" value="0"/>
  <variable name="x_0,3" index="2" value="-0"/>
  <variable name="x_0,4" index="3" value="5"/>
  <variable name="x_1,0" index="4" value="-0"/>
  <variable name="x_1,2" index="5" value="2"/>
  <variable name="x_1,3" index="6" value="-0"/>
  <variable name="x_1,4" index="7" value="-0"/>
  <variable name="x_2,0" index="8" value="1"/>
  <variable name="x_2,1" index="9" value="-0"/>
  <variable name="x_2,3" index="10" value="-0"/>
  <variable name="x_2,4" index="11" value="0"/>
  <variable name="x_3,0" index="12" value="-0"/>
  <variable name="x_3,1" index="13" value="3"/>
  <variable name="x_3,2" index="14" value="-0"/>
  <variable name="x_3,4" index="15" value="-0"/>
  <variable name="x_4,0" index="16" value="0"/>
  <variable name="x_4,1" index="17" value="-0"/>
  <variable name="x_4,2" index="18" value="-0"/>
  <variable name="x_4,3" index="19" value="4"/>
  <variable name="y_0,1" index="20" value="0"/>
  <variable name="y_0,2" index="21" value="0"/>
  <variable name="y_0,3" index="22" value="-0"/>
  <variable name="y_0,4" index="23" value="1"/>
  <variable name="y_1,0" index="24" value="0"/>
  <variable name="y_1,2" index="25" value="1"/>
  <variable name="y_1,3" index="26" value="0"/>
  <variable name="y_1,4" index="27" value="-0"/>
  <variable name="y_2,0" index="28" value="1"/>
  <variable name="y_2,1" index="29" value="0"/>
  <variable name="y_2,3" index="30" value="-0"/>
  <variable name="y_2,4" index="31" value="-0"/>
  <variable name="y_3,0" index="32" value="0"/>
  <variable name="y_3,1" index="33" value="1"/>
  <variable name="y_3,2" index="34" value="-0"/>
  <variable name="y_3,4" index="35" value="0"/>
  <variable name="y_4,0" index="36" value="0"/>
  <variable name="y_4,1" index="37" value="-0"/>
  <variable name="y_4,2" index="38" value="-0"/>
  <variable name="y_4,3" index="39" value="1"/>
 </variables>
</CPLEXSolution>
